c ---- [ banner ] ------------------------------------------------------------
c
c Kissat SAT Solver
c 
c Copyright (c) 2021-2024 Armin Biere University of Freiburg
c Copyright (c) 2019-2021 Armin Biere Johannes Kepler University Linz
c 
c Version 4.0.1 43f02cf3e992cb44653b35e5cb26f93281552ae0
c gcc (Ubuntu 13.2.0-23ubuntu4) 13.2.0 -W -Wall -O3 -DNDEBUG
c Thu Sep 12 12:27:46 CEST 2024 Linux abryzen9 6.8.0-41-generic x86_64
c
c ---- [ parsing ] -----------------------------------------------------------
c
c opened and reading DIMACS file:
c
c   /data/artifact/AMulet2.0_artifact/exp4/cnf_dc2_64/64_64_U_SP_CWT_SE_GenMul_dc2.cnf
c
c parsed 'p cnf 37542 149965' header
c closing input after reading 2942146 bytes (3 MB)
c finished parsing after 0.03 seconds
c
c ---- [ options ] -----------------------------------------------------------
c
c --stable=0                       (different from default '1')
c
c ---- [ solving ] -----------------------------------------------------------
c
c  seconds switched rate     size/glue tier1  binary           remaining
c         MB reductions conflicts size  tier2     irredundant
c          level restarts redundant glue  trail           variables
c
c *  0.03 12 0 0 0  0 0   0   0 0.0 0 0 0 0 0% 35329 114634 37539 100%
c (  0.04 13 0 0 0  0 0   0   0 0.0 0 0 0 0 0% 35329 114634 37539 100%
c .  0.05 13 0 0 0  0 0   0   0 0.0 0 0 0 0 0% 35325 114634 37539 100%
c c  0.15 21 0 0 0  0 0   0   0 0.0 0 0 0 0 0% 43701 99709 33349 89%
c d  0.16 21 0 0 0  0 0   0   0 0.0 0 0 0 0 0% 35321 99709 33349 89%
c =  0.23 21 0 0 0  0 0   0   0 0.0 0 0 0 0 0% 35273 99709 32764 87%
c d  0.24 21 0 0 0  0 0   0   0 0.0 0 0 0 0 0% 34103 99709 32764 87%
c f  0.36 20 0 0 0  0 0   0   0 0.0 0 0 0 0 0% 35236 95612 34701 92%
c e  0.56 27 0 0 0  0 0   0   0 0.0 0 0 0 0 0% 23939 104141 25296 67%
c )  0.56 27 0 0 0  0 0   0   0 0.0 0 0 0 0 0% 23939 104141 25296 67%
c {  0.58 27 0 0 0  0 0   0   0 0.0 0 0 2 6 0% 23939 104141 25296 67%
c -  0.81 27 114 0 1 203 21 1001 759 2.9 13 5 3 7 21% 24017 104130 25296 67%
c -  1.09 27 147 0 2 361 26 2001 1476 3.0 15 5 3 9 24% 24075 104130 25296 67%
c c  1.33 23 148 0 2 427 27 2506 1887 2.9 15 5 3 8 25% 24726 103689 24874 66%
c d  1.34 23 148 0 2 427 27 2506 1885 2.9 15 5 3 8 25% 23882 103689 24874 66%
c u  1.36 23 148 0 2 427 27 2506 1437 2.9 15 5 3 8 25% 22630 103689 24874 66%
c v  1.39 23 148 0 2 427 27 2506 1350 2.9 15 5 3 8 25% 22630 103689 24874 66%
c w  1.40 23 148 0 2 427 27 2506 1350 2.9 15 5 3 8 25% 22630 103689 24874 66%
c x  1.42 24 148 0 2 427 27 2506 1350 2.9 15 5 3 8 25% 22728 103309 24874 66%
c =  1.51 26 148 0 2 427 27 2506 1350 2.9 15 5 3 8 25% 23384 103309 24546 65%
c
c  seconds   switched   rate       size/glue tier1    binary           remaining
c         MB  reductions conflicts       size  tier2      irredundant
c           level restarts    redundant    glue   trail           variables
c
c d  1.52 26 148 0 2 427 27 2506 1348 2.9 15 5 3 8 25% 22724 103309 24545 65%
c t  1.53 26 148 0 2 427 27 2506 1348 2.9 15 5 3 8 25% 22714 103309 24545 65%
c f  1.56 26 148 0 2 427 27 2506 1348 2.9 15 5 3 8 25% 23092 102279 25016 67%
c u  1.66 26 148 0 2 427 27 2506 1271 2.9 15 5 3 8 25% 23103 102279 25016 67%
c v  1.69 26 148 0 2 427 27 2506 1164 2.9 15 5 3 8 25% 23103 102279 25016 67%
c w  1.70 26 148 0 2 427 27 2506 1160 2.9 15 5 3 8 25% 23103 102279 25016 67%
c x  1.72 26 148 0 2 427 27 2506 1160 2.9 15 5 3 8 25% 23105 101908 25016 67%
c =  1.81 26 148 0 2 427 27 2506 1160 2.9 15 5 3 8 25% 23761 101908 24688 66%
c d  1.82 26 148 0 2 427 27 2506 1154 2.9 15 5 3 8 25% 23072 101908 24688 66%
c t  1.84 26 148 0 2 427 27 2506 1154 2.9 15 5 3 8 25% 23062 101908 24688 66%
c f  1.88 26 148 0 2 427 27 2506 1154 2.9 15 5 3 8 25% 23034 101542 24793 66%
c -  2.09 26 171 0 3 527 27 3417 1685 2.9 14 5 3 8 27% 23091 101534 24793 66%
c -  2.66 26 184 0 4 889 32 5151 2845 3.2 17 5 3 8 29% 23141 101529 24793 66%
c -  3.50 26 199 0 5 1109 31 7151 4057 3.6 19 5 3 8 29% 23228 101528 24793 66%
c d  3.70 26 205 0 5 1149 32 7715 4509 3.7 20 5 3 8 30% 23217 101528 24774 66%
c u  3.78 26 205 0 5 1149 32 7715 3490 3.7 20 5 3 8 30% 23218 101528 24774 66%
c v  3.84 26 205 0 5 1149 32 7715 3121 3.7 20 5 3 8 30% 23219 101528 24774 66%
c w  3.90 26 205 0 5 1149 32 7715 3112 3.7 20 5 3 8 30% 23219 101528 24774 66%
c x  3.94 26 205 0 5 1149 32 7715 3112 3.7 20 5 3 8 30% 23221 100851 24774 66%
c =  4.17 26 205 0 5 1149 32 7715 3112 3.7 20 5 3 8 30% 25219 100851 23775 63%
c
c  seconds   switched    rate       size/glue tier1    binary           remaining
c         MB  reductions  conflicts       size  tier2      irredundant
c           level  restarts    redundant    glue   trail           variables
c
c d  4.18 26 205 0 5 1149 32 7715 3052 3.7 20 5 3 8 30% 23171 100851 23774 63%
c t  4.20 26 205 0 5 1149 32 7715 3052 3.7 20 5 3 8 30% 22780 100851 23774 63%
c f  4.28 26 205 0 5 1149 32 7715 3052 3.7 20 5 3 8 30% 23463 98863 24433 65%
c c  4.36 26 205 0 5 1149 32 7715 3052 3.7 20 5 3 8 30% 23468 98847 24431 65%
c d  4.37 26 205 0 5 1149 32 7715 3052 3.7 20 5 3 8 30% 23464 98847 24431 65%
c u  4.41 26 205 0 5 1149 32 7715 2834 3.7 20 5 3 8 30% 23466 98847 24431 65%
c v  4.44 26 205 0 5 1149 32 7715 2750 3.7 20 5 3 8 30% 23466 98847 24431 65%
c w  4.50 26 205 0 5 1149 32 7715 2741 3.7 20 5 3 8 30% 23466 98847 24431 65%
c x  4.54 26 205 0 5 1149 32 7715 2741 3.7 20 5 3 8 30% 23469 96190 24431 65%
c =  4.74 26 205 0 5 1149 32 7715 2741 3.7 20 5 3 8 30% 24215 96190 24058 64%
c d  4.75 26 205 0 5 1149 32 7715 2733 3.7 20 5 3 8 30% 23135 96190 24058 64%
c t  4.78 26 205 0 5 1149 32 7715 2733 3.7 20 5 3 8 30% 23096 96190 24058 64%
c f  4.84 26 205 0 5 1149 32 7715 2733 3.7 20 5 3 8 30% 23527 95231 24494 65%
c -  5.29 26 212 0 6 1300 31 9387 3692 3.6 19 5 3 8 30% 23594 95228 24494 65%
c o  5.42 26 206 0 6 1341 31 10000 4214 3.5 19 5 3 8 30% 23621 95227 24494 65%
c -  5.83 26 217 0 7 1503 30 11836 5205 3.5 19 6 3 8 30% 23692 95224 24494 65%
c s  6.14 26 213 0 7 1577 30 12527 5829 3.5 20 6 3 8 30% 23713 89696 24494 65%
c e  6.29 26 213 0 7 1577 30 12527 5829 3.5 20 6 3 8 30% 20662 92121 22174 59%
c 2  6.29 26 213 0 7 1577 30 12527 5829 3.5 20 6 3 8 30% 20659 92121 22174 59%
c s  6.30 26 213 0 7 1577 30 12527 5829 3.5 20 6 3 8 30% 20670 91399 22174 59%
c
c  seconds   switched    rate        size/glue tier1    binary          remaining
c         MB  reductions   conflicts       size  tier2      irredundant
c           level  restarts     redundant    glue   trail          variables
c
c e  6.32 26 213 0 7 1577 30 12527 5829 3.5 20 6 3 8 30% 20084 91719 21866 58%
c ^  6.32 26 213 0 7 1577 30 12527 5829 3.5 20 6 3 8 30% 20084 91719 21866 58%
c -  6.70 26 231 0 8 1701 30 14483 6012 3.4 19 6 3 8 30% 20175 91704 21866 58%
c d  7.07 26 229 0 8 1843 30 15799 7195 3.4 19 6 3 8 30% 20221 91691 21858 58%
c u  7.13 26 229 0 8 1843 30 15799 5720 3.4 19 6 3 8 30% 20235 91691 21858 58%
c v  7.18 26 229 0 8 1843 30 15799 5302 3.4 19 6 3 8 30% 20236 91691 21858 58%
c w  7.22 26 229 0 8 1843 30 15799 5302 3.4 19 6 3 8 30% 20236 91691 21858 58%
c x  7.26 26 229 0 8 1843 30 15799 5301 3.4 19 6 3 8 30% 20295 90876 21858 58%
c =  7.45 26 229 0 8 1843 30 15799 5301 3.4 19 6 3 8 30% 20745 90876 21633 58%
c d  7.46 26 229 0 8 1843 30 15799 5288 3.4 19 6 3 8 30% 20213 90876 21630 58%
c t  7.49 26 229 0 8 1843 30 15799 5288 3.4 19 6 3 8 30% 20171 90876 21630 58%
c f  7.57 26 229 0 8 1843 30 15799 5288 3.4 19 6 3 8 30% 20187 90760 21662 58%
c u  7.64 26 229 0 8 1843 30 15799 4930 3.4 19 6 3 8 30% 20189 90760 21662 58%
c v  7.69 26 229 0 8 1843 30 15799 4781 3.4 19 6 3 8 30% 20189 90760 21662 58%
c w  7.74 26 229 0 8 1843 30 15799 4776 3.4 19 6 3 8 30% 20189 90760 21662 58%
c x  7.78 26 229 0 8 1843 30 15799 4775 3.4 19 6 3 8 30% 20200 90078 21662 58%
c =  7.98 26 229 0 8 1843 30 15799 4775 3.4 19 6 3 8 30% 21146 90078 21189 56%
c d  7.99 26 229 0 8 1843 30 15799 4721 3.4 19 6 3 8 30% 20113 90078 21189 56%
c t  8.01 26 229 0 8 1843 30 15799 4721 3.4 19 6 3 8 30% 20065 90078 21189 56%
c f  8.04 26 229 0 8 1843 30 15799 4721 3.4 19 6 3 8 30% 19992 90037 21201 56%
c
c  seconds   switched    rate        size/glue tier1    binary          remaining
c         MB  reductions   conflicts       size  tier2      irredundant
c           level  restarts     redundant    glue   trail          variables
c
c -  8.28 26 236 0 9 1920 29 17314 5386 3.4 19 6 3 7 30% 20059 90036 21201 56%
c o  8.79 26 251 0 9 2127 29 20000 7710 3.4 19 6 3 7 29% 20161 90029 21201 56%
c -  8.85 26 254 0 10 2173 30 20316 6883 3.5 19 6 2 7 29% 20178 90029 21201 56%
c -  9.33 26 251 0 11 2448 29 23478 8389 3.4 19 6 2 7 29% 20270 90028 21201 56%
c s  9.72 26 247 0 11 2648 29 25032 9755 3.4 19 6 2 7 29% 20323 87741 21201 56%
c e  9.82 26 247 0 11 2648 29 25032 9755 3.4 19 6 2 7 29% 16930 92725 19154 51%
c 2  9.82 26 247 0 11 2648 29 25032 9755 3.4 19 6 2 7 29% 16917 92725 19154 51%
c s  9.84 26 247 0 11 2648 29 25032 9755 3.4 19 6 2 7 29% 17008 90849 19154 51%
c e  9.85 26 247 0 11 2648 29 25032 9755 3.4 19 6 2 7 29% 16983 90889 19137 51%
c ^  9.85 26 247 0 11 2648 29 25032 9755 3.4 19 6 2 7 29% 16983 90889 19137 51%
c - 10.05 26 245 0 12 2792 29 26794 8441 3.3 19 6 2 7 29% 17013 90888 19137 51%
c c 10.11 26 248 0 12 2795 29 26928 8563 3.3 19 6 2 7 29% 17038 90825 19126 51%
c d 10.11 26 248 0 12 2795 29 26928 8556 3.3 19 6 2 7 29% 16978 90825 19103 51%
c u 10.14 26 248 0 12 2795 29 26928 7362 3.3 19 6 2 7 29% 16998 90825 19103 51%
c v 10.18 26 248 0 12 2795 29 26928 6476 3.3 19 6 2 7 29% 16998 90825 19103 51%
c w 10.18 26 248 0 12 2795 29 26928 6474 3.3 19 6 2 7 29% 16998 90825 19103 51%
c x 10.23 26 248 0 12 2795 29 26928 6469 3.3 19 6 2 7 29% 17113 90032 19103 51%
c = 10.39 26 248 0 12 2795 29 26928 6469 3.3 19 6 2 7 29% 18029 90032 18645 50%
c d 10.39 26 248 0 12 2795 29 26928 6379 3.3 19 6 2 7 29% 17098 90032 18645 50%
c t 10.41 26 248 0 12 2795 29 26928 6379 3.3 19 6 2 7 29% 16926 90032 18645 50%
c
c  seconds   switched     rate        size/glue tier1    binary          remaining
c         MB   reductions   conflicts       size  tier2      irredundant
c           level   restarts     redundant    glue   trail          variables
c
c f 10.47 26 248 0 12 2795 29 26928 6379 3.3 19 6 2 7 29% 17123 89284 18791 50%
c u 10.51 26 248 0 12 2795 29 26928 6024 3.3 19 6 2 7 29% 17135 89284 18791 50%
c v 10.54 26 248 0 12 2795 29 26928 5811 3.3 19 6 2 7 29% 17136 89284 18791 50%
c w 10.55 26 248 0 12 2795 29 26928 5809 3.3 19 6 2 7 29% 17136 89284 18791 50%
c x 10.61 26 248 0 12 2795 29 26928 5804 3.3 19 6 2 7 29% 17148 87723 18791 50%
c = 10.79 26 248 0 12 2795 29 26928 5804 3.3 19 6 2 7 29% 19102 87722 17814 47%
c d 10.80 26 248 0 12 2795 29 26928 5670 3.3 19 6 2 7 29% 17079 87722 17814 47%
c t 10.82 26 248 0 12 2795 29 26928 5670 3.3 19 6 2 7 29% 16913 87722 17814 47%
c f 10.87 26 248 0 12 2795 29 26928 5670 3.3 19 6 2 7 29% 16980 87194 17926 48%
c - 11.12 26 243 0 13 2953 28 30258 7582 3.2 18 6 2 7 28% 17041 87194 17926 48%
c - 11.73 26 237 0 14 3339 28 33865 9705 3.3 19 6 2 7 28% 17109 87191 17926 48%
c - 12.26 26 230 0 15 3656 28 37606 11450 3.3 20 6 2 6 28% 17180 87189 17926 48%
c o 12.50 26 227 0 15 3794 27 40064 13600 3.2 19 6 2 6 28% 17222 87189 17926 48%
c d 12.77 26 225 0 15 3956 27 41258 14620 3.2 20 6 2 6 28% 17196 87188 17904 48%
c u 12.86 26 225 0 15 3956 27 41258 12427 3.2 20 6 2 6 28% 17219 87188 17904 48%
c v 12.92 26 225 0 15 3956 27 41258 11736 3.2 20 6 2 6 28% 17221 87188 17904 48%
c w 12.97 26 225 0 15 3956 27 41258 11736 3.2 20 6 2 6 28% 17221 87188 17904 48%
c x 13.04 26 225 0 15 3956 27 41258 11735 3.2 20 6 2 6 28% 17221 81778 17904 48%
c = 13.21 26 225 0 15 3956 27 41258 11735 3.2 20 6 2 6 28% 18197 81774 17416 46%
c d 13.22 26 225 0 15 3956 27 41258 11654 3.2 20 6 2 6 28% 17192 81774 17416 46%
c
c  seconds   switched     rate         size/glue tier1    binary          remaining
c         MB   reductions   conflicts        size  tier2      irredundant
c           level   restarts      redundant    glue   trail          variables
c
c t 13.24 26 225 0 15 3956 27 41258 11654 3.2 20 6 2 6 28% 17039 81774 17416 46%
c f 13.26 26 225 0 15 3956 27 41258 11654 3.2 20 6 2 6 28% 17048 81602 17445 46%
c u 13.31 26 225 0 15 3956 27 41258 11174 3.2 20 6 2 6 28% 17059 81602 17445 46%
c v 13.35 26 225 0 15 3956 27 41258 10259 3.2 20 6 2 6 28% 17059 81602 17445 46%
c w 13.38 26 225 0 15 3956 27 41258 10257 3.2 20 6 2 6 28% 17059 81602 17445 46%
c x 13.43 26 225 0 15 3956 27 41258 10257 3.2 20 6 2 6 28% 17060 78511 17445 46%
c = 13.58 26 225 0 15 3956 27 41258 10257 3.2 20 6 2 6 28% 17140 78511 17405 46%
c d 13.59 26 225 0 15 3956 27 41258 10242 3.2 20 6 2 6 28% 17028 78511 17405 46%
c t 13.61 26 225 0 15 3956 27 41258 10242 3.2 20 6 2 6 28% 17019 78511 17405 46%
c f 13.62 26 225 0 15 3956 27 41258 10242 3.2 20 6 2 6 28% 17021 78506 17406 46%
c - 13.64 26 226 0 16 3964 27 41478 9099 3.2 20 6 2 6 28% 17028 78506 17406 46%
c - 14.08 26 221 0 17 4230 26 45480 11184 3.2 19 6 2 6 28% 17112 78504 17406 46%
c - 14.53 26 215 0 18 4532 26 49603 13347 3.1 19 6 2 6 27% 17163 78504 17406 46%
c s 14.78 26 212 0 18 4689 25 52139 15486 3.1 19 6 2 6 27% 17213 76523 17406 46%
c e 14.86 26 212 0 18 4689 25 52139 15486 3.1 19 6 2 6 27% 15437 79708 16400 44%
c 2 14.86 26 212 0 18 4689 25 52139 15486 3.1 19 6 2 6 27% 15428 79708 16400 44%
c s 14.87 26 212 0 18 4689 25 52139 15486 3.1 19 6 2 6 27% 15482 79245 16400 44%
c e 14.88 26 212 0 18 4689 25 52139 15486 3.1 19 6 2 6 27% 15452 79294 16381 44%
c ^ 14.88 26 212 0 18 4689 25 52139 15486 3.1 19 6 2 6 27% 15452 79294 16381 44%
c - 15.19 26 210 0 19 4886 25 53845 13692 3.1 19 6 2 6 27% 15473 79294 16381 44%
c
c  seconds   switched     rate         size/glue tier1    binary          remaining
c         MB   reductions   conflicts        size  tier2      irredundant
c           level   restarts      redundant    glue   trail          variables
c
c - 15.59 26 206 0 20 5144 25 58203 15320 3.1 19 6 2 6 27% 15555 79287 16381 44%
c c 15.70 26 205 0 20 5171 24 58885 15926 3.0 19 6 2 6 27% 15592 79198 16359 44%
c d 15.70 26 205 0 20 5171 24 58885 15847 3.0 19 6 2 6 27% 15548 79198 16359 44%
c u 15.77 26 205 0 20 5171 24 58885 13388 3.0 19 6 2 6 27% 15577 79198 16359 44%
c v 15.81 26 205 0 20 5171 24 58885 12265 3.0 19 6 2 6 27% 15581 79198 16359 44%
c w 15.83 26 205 0 20 5171 24 58885 12245 3.0 19 6 2 6 27% 15582 79198 16359 44%
c x 15.88 26 205 0 20 5171 24 58885 12245 3.0 19 6 2 6 27% 15590 78977 16359 44%
c = 16.08 26 205 0 20 5171 24 58885 12245 3.0 19 6 2 6 27% 16906 78977 15701 42%
c d 16.09 26 205 0 20 5171 24 58885 11723 3.0 19 6 2 6 27% 15502 78977 15700 42%
c t 16.11 26 205 0 20 5171 24 58885 11723 3.0 19 6 2 6 27% 15272 78977 15700 42%
c f 16.18 26 205 0 20 5171 24 58885 11723 3.0 19 6 2 6 27% 15470 78197 15804 42%
c u 16.27 26 205 0 20 5171 24 58885 10715 3.0 19 6 2 6 27% 15487 78197 15804 42%
c v 16.34 26 205 0 20 5171 24 58885 10052 3.0 19 6 2 6 27% 15488 78197 15804 42%
c w 16.37 26 205 0 20 5171 24 58885 10037 3.0 19 6 2 6 27% 15488 78197 15804 42%
c x 16.46 27 205 0 20 5171 24 58885 10026 3.0 19 6 2 6 27% 15614 74037 15804 42%
c = 16.71 27 205 0 20 5171 24 58885 10026 3.0 19 6 2 6 27% 15900 74037 15661 42%
c d 16.72 27 205 0 20 5171 24 58885 9974 3.0 19 6 2 6 27% 15604 74037 15661 42%
c t 16.74 27 205 0 20 5171 24 58885 9974 3.0 19 6 2 6 27% 15531 74037 15661 42%
c f 16.76 27 205 0 20 5171 24 58885 9974 3.0 19 6 2 6 27% 15550 73926 15675 42%
c - 17.30 27 201 0 21 5396 24 62676 11871 3.0 18 6 2 6 27% 15608 73923 15675 42%
c
c  seconds   switched     rate         size/glue tier1    binary          remaining
c         MB   reductions   conflicts        size  tier2      irredundant
c           level   restarts      redundant    glue   trail          variables
c
c - 17.98 27 198 0 22 5792 23 67261 14285 2.9 18 6 2 6 27% 15677 73923 15675 42%
c o 18.47 27 195 0 22 6143 23 70065 16862 3.0 18 6 2 6 27% 15712 73922 15675 42%
c - 18.73 27 194 0 23 6326 23 71951 16425 3.0 19 6 2 6 27% 15739 73922 15675 42%
c - 19.44 27 193 0 24 6801 24 76746 18347 3.0 19 6 2 5 27% 15801 73921 15675 42%
c c 19.97 27 191 0 24 7118 24 79946 21248 3.0 19 6 2 5 28% 15843 73859 15658 42%
c d 19.97 27 191 0 24 7118 24 79946 21167 3.0 19 6 2 5 28% 15809 73859 15658 42%
c u 20.06 27 191 0 24 7118 24 79946 18272 3.0 19 6 2 5 28% 15834 73859 15658 42%
c v 20.13 27 191 0 24 7118 24 79946 16701 3.0 19 6 2 5 28% 15834 73859 15658 42%
c w 20.17 27 191 0 24 7118 24 79946 16698 3.0 19 6 2 5 28% 15834 73859 15658 42%
c x 20.25 27 191 0 24 7118 24 79946 16689 3.0 19 6 2 5 28% 15968 72678 15658 42%
c = 20.58 27 191 0 24 7118 24 79946 16689 3.0 19 6 2 5 28% 17014 72670 15135 40%
c d 20.59 27 191 0 24 7118 24 79946 16278 3.0 19 6 2 5 28% 15885 72670 15135 40%
c t 20.61 27 191 0 24 7118 24 79946 16278 3.0 19 6 2 5 28% 15737 72670 15135 40%
c f 20.63 27 191 0 24 7118 24 79946 16278 3.0 19 6 2 5 28% 15795 72404 15170 40%
c u 20.74 27 191 0 24 7118 24 79946 14842 3.0 19 6 2 5 28% 15807 72404 15170 40%
c v 20.79 27 191 0 24 7118 24 79946 14165 3.0 19 6 2 5 28% 15807 72404 15170 40%
c w 20.87 27 191 0 24 7118 24 79946 14142 3.0 19 6 2 5 28% 15807 72404 15170 40%
c x 20.93 27 191 0 24 7118 24 79946 14137 3.0 19 6 2 5 28% 15853 71401 15170 40%
c = 21.23 27 191 0 24 7118 24 79946 14137 3.0 19 6 2 5 28% 15891 71401 15151 40%
c d 21.24 27 191 0 24 7118 24 79946 14119 3.0 19 6 2 5 28% 15852 71401 15151 40%
c
c  seconds   switched     rate         size/glue tier1    binary          remaining
c         MB   reductions   conflicts        size  tier2      irredundant
c           level   restarts      redundant    glue   trail          variables
c
c t 21.26 27 191 0 24 7118 24 79946 14119 3.0 19 6 2 5 28% 15832 71401 15151 40%
c f 21.27 27 191 0 24 7118 24 79946 14119 3.0 19 6 2 5 28% 15834 71387 15153 40%
c - 21.61 27 190 0 25 7387 24 81645 13900 3.0 19 6 2 5 28% 15846 71386 15153 40%
c i 21.90 27 188 0 25 7579 24 84481 16445 3.0 19 6 2 5 28% 15906 71382 15152 40%
c i 21.90 27 188 0 25 7579 24 84493 16450 3.0 19 6 2 5 28% 15908 71382 15151 40%
c - 22.19 27 186 0 26 7790 24 86645 16394 3.0 19 6 2 5 28% 15926 71381 15151 40%
c i 23.21 27 184 0 26 8391 24 91548 20893 3.0 19 6 2 5 28% 15984 71376 15150 40%
c i 23.21 27 184 0 26 8391 24 91550 20893 3.0 19 6 2 5 28% 15985 71376 15149 40%
c i 23.21 27 184 0 26 8391 24 91553 20892 3.0 19 6 2 5 28% 15986 71376 15147 40%
c i 23.21 27 184 0 26 8391 24 91556 20891 3.0 19 6 2 5 28% 15988 71376 15146 40%
c - 23.24 27 184 0 27 8401 24 91745 18604 3.0 19 6 2 5 28% 15983 71376 15146 40%
c i 23.39 27 184 0 27 8466 24 92282 19111 3.0 19 6 2 5 28% 15994 71376 15145 40%
c s 24.07 27 182 0 27 8845 24 95793 22344 2.9 19 6 2 5 29% 16022 69084 15145 40%
c e 24.21 27 182 0 27 8845 24 95793 22344 2.9 19 6 2 5 29% 11823 80311 12933 34%
c 2 24.21 27 182 0 27 8845 24 95793 22344 2.9 19 6 2 5 29% 11818 80311 12933 34%
c s 24.25 27 182 0 27 8845 24 95793 22344 2.9 19 6 2 5 29% 11861 78998 12933 34%
c e 24.28 27 182 0 27 8845 24 95793 22344 2.9 19 6 2 5 29% 11709 79289 12885 34%
c ^ 24.28 27 182 0 27 8845 24 95793 22344 2.9 19 6 2 5 29% 11709 79289 12885 34%
c - 24.45 27 182 0 28 8973 24 96941 15010 2.9 18 6 2 5 29% 11718 79289 12885 34%
c i 24.97 27 179 0 28 9411 24 100022 17894 2.9 19 6 2 5 29% 11736 79289 12884 34%
c
c  seconds   switched     rate          size/glue tier1    binary          remaining
c         MB   reductions   conflicts         size  tier2      irredundant
c           level   restarts       redundant    glue   trail          variables
c
c - 25.17 27 178 0 29 9587 24 102232 17688 2.9 18 6 2 5 29% 11748 79289 12884 34%
c i 25.17 27 178 0 29 9594 24 102432 17831 2.9 18 6 2 5 29% 11754 79289 12883 34%
c i 25.23 27 178 0 29 9644 23 103174 18486 2.9 18 6 2 5 29% 11765 79289 12882 34%
c d 25.43 27 177 0 29 9815 24 104562 19714 2.9 18 6 2 5 29% 11769 79263 12878 34%
c d 25.44 27 177 0 29 9815 24 104562 19706 2.9 18 6 2 5 29% 11763 79263 12875 34%
c u 25.51 27 177 0 29 9815 24 104562 16666 2.9 18 6 2 5 29% 11791 79263 12874 34%
c v 25.57 27 177 0 29 9815 24 104562 14846 2.9 18 6 2 5 29% 11798 79263 12874 34%
c w 25.66 27 177 0 29 9815 24 104562 14803 2.9 18 6 2 5 29% 11798 79263 12874 34%
c x 25.72 27 177 0 29 9815 24 104562 14783 2.9 18 6 2 5 29% 11822 78241 12872 34%
c = 26.12 27 177 0 29 9815 24 104562 14783 2.9 18 6 2 5 29% 12132 77894 12679 34%
c d 26.13 27 177 0 29 9815 24 104562 14317 2.9 18 6 2 5 29% 11787 77892 12679 34%
c t 26.14 27 177 0 29 9815 24 104562 14317 2.9 18 6 2 5 29% 11653 77892 12679 34%
c f 26.24 27 177 0 29 9815 24 104562 14317 2.9 18 6 2 5 29% 11677 77756 12691 34%
c u 26.32 27 177 0 29 9815 24 104562 13472 2.9 18 6 2 5 29% 11657 77756 12691 34%
c v 26.36 27 177 0 29 9815 24 104562 13048 2.9 18 6 2 5 29% 11657 77756 12691 34%
c w 26.46 27 177 0 29 9815 24 104562 12753 2.9 18 6 2 5 29% 11657 77756 12691 34%
c x 26.55 27 177 0 29 9815 24 104562 12742 2.9 18 6 2 5 29% 11682 76279 12691 34%
c = 26.94 27 177 0 29 9815 24 104562 12742 2.9 18 6 2 5 29% 11692 76265 12684 34%
c d 26.94 27 177 0 29 9815 24 104562 12742 2.9 18 6 2 5 29% 11681 76265 12684 34%
c t 26.95 27 177 0 29 9815 24 104562 12742 2.9 18 6 2 5 29% 11677 76265 12684 34%
c
c  seconds   switched     rate          size/glue tier1    binary          remaining
c         MB   reductions   conflicts         size  tier2      irredundant
c           level   restarts       redundant    glue   trail          variables
c
c f 26.96 27 177 0 29 9815 24 104562 12742 2.9 18 6 2 5 29% 11679 76253 12685 34%
c i 26.96 27 177 0 29 9815 24 104562 12742 2.9 18 6 2 5 29% 11679 76253 12685 34%
c i 27.03 27 176 0 29 9865 23 105461 13545 2.9 18 6 2 5 29% 11691 76253 12684 34%
c i 27.04 27 175 0 29 9874 23 105589 13635 2.9 18 6 2 5 29% 11700 76252 12683 34%
c i 27.04 27 175 0 29 9874 23 105737 13735 2.9 18 6 2 5 29% 11708 76252 12682 34%
c i 27.04 27 175 0 29 9874 23 105738 13735 2.9 18 6 2 5 29% 11708 76252 12681 34%
c i 27.04 27 175 0 29 9874 23 105774 13744 2.9 18 6 2 5 29% 11715 76251 12650 34%
c } 27.04 27 175 0 29 9874 23 105776 13744 2.9 18 6 2 5 29% 11715 76251 12644 34%
c 0 27.04 27 175 0 29 9874 23 105776 13744 2.9 18 6 2 5 29% 11715 76251 12644 34%
c
c ---- [ result ] ------------------------------------------------------------
c
s UNSATISFIABLE
c
c ---- [ profiling ] ---------------------------------------------------------
c
c          17.26   63.81 %  search
c          17.26   63.81 %  focused
c           9.21   34.04 %  simplify
c           8.79   32.49 %  probe
c           3.56   13.18 %  sweep
c           3.06   11.32 %  vivify
c           0.86    3.20 %  factor
c           0.74    2.73 %  eliminate
c           0.54    2.00 %  substitute
c           0.52    1.92 %  congruence
c           0.51    1.90 %  preprocess
c           0.19    0.70 %  fastel
c           0.18    0.67 %  reduce
c           0.16    0.59 %  subsume
c           0.15    0.56 %  transitive
c           0.08    0.31 %  backbone
c           0.04    0.15 %  lucky
c           0.03    0.10 %  parse
c =============================================
c          27.04  100.00 %  total
c
c ---- [ statistics ] --------------------------------------------------------
c
c chronological:                         4624                4 %  conflicts
c conflicts:                           105776             3911.15 per second
c congruent:                             4664               12 %  variables
c decisions:                          2423258               22.91 per conflict
c eliminated:                           17382               46 %  variables
c factored:                              4108               11 %  variables
c fast_eliminated:                       9405               54 %  eliminated
c fast_strengthened:                      410               12 %  per strengthened
c fast_subsumed:                          238                1 %  per subsumed
c iterations:                              16                0 %  variables
c propagations:                     115947013          4287231    per second
c reductions:                              29             3647    interval
c reordered:                                4            26444    interval
c restarts:                              9874               11    interval
c strengthened:                          3527                0 %  checks
c substituted:                          11525               31 %  variables
c subsumed:                             16462                1 %  checks
c switched:                                 0                0    interval
c vivified:                             72305               15 %  checks
c
c ---- [ glue usage ] --------------------------------------------------------
c
c focused glue 2 used 53532 clauses 26.37% accumulated 69.81% tier1
c focused glue 3 used 24603 clauses 12.12% accumulated 81.93%
c focused glue 4 used 10986 clauses  5.41% accumulated 87.35%
c focused glue 5 used  6558 clauses  3.23% accumulated 90.58% tier2
c
c ---- [ resources ] ---------------------------------------------------------
c
c maximum-resident-set-size:         28790784 bytes         27 MB
c process-time:                            27s              27.04 seconds
c
c ---- [ shutting down ] -----------------------------------------------------
c
c exit 20
